NAME          
ROWS
 N  OBJ
 L  c1
 L  c2
 L  c3
 L  c4
 L  c5
COLUMNS
    MARKER    'MARKER'                 'INTORG'
    x[1]      c1        387
    x[1]      c2        657
    x[1]      c3        926
    x[1]      c4        988
    x[1]      c5        67
    x[1]      OBJ       -454
    x[2]      c1        937
    x[2]      c2        461
    x[2]      c3        685
    x[2]      c4        681
    x[2]      c5        106
    x[2]      OBJ       -16
    x[3]      c1        203
    x[3]      c2        6
    x[3]      c3        366
    x[3]      c4        334
    x[3]      c5        229
    x[3]      OBJ       -760
    x[4]      c1        274
    x[4]      c2        776
    x[4]      c3        115
    x[4]      c4        121
    x[4]      c5        144
    x[4]      OBJ       -693
    x[5]      c1        16
    x[5]      c2        305
    x[5]      c3        337
    x[5]      c4        461
    x[5]      c5        606
    x[5]      OBJ       -362
    x[6]      c1        542
    x[6]      c2        902
    x[6]      c3        640
    x[6]      c4        238
    x[6]      c5        103
    x[6]      OBJ       -491
    x[7]      c1        200
    x[7]      c2        246
    x[7]      c3        52
    x[7]      c4        172
    x[7]      c5        891
    x[7]      OBJ       -938
    x[8]      c1        56
    x[8]      c2        874
    x[8]      c3        985
    x[8]      c4        639
    x[8]      c5        31
    x[8]      OBJ       -533
    x[9]      c1        427
    x[9]      c2        502
    x[9]      c3        604
    x[9]      c4        375
    x[9]      c5        831
    x[9]      OBJ       -69
    x[10]     c1        394
    x[10]     c2        412
    x[10]     c3        231
    x[10]     c4        764
    x[10]     c5        505
    x[10]     OBJ       -655
    x[11]     c1        756
    x[11]     c2        979
    x[11]     c3        68
    x[11]     c4        384
    x[11]     c5        356
    x[11]     OBJ       -489
    x[12]     c1        602
    x[12]     c2        85
    x[12]     c3        502
    x[12]     c4        517
    x[12]     c5        891
    x[12]     OBJ       -246
    x[13]     c1        181
    x[13]     c2        521
    x[13]     c3        810
    x[13]     c4        366
    x[13]     c5        295
    x[13]     OBJ       -768
    x[14]     c1        155
    x[14]     c2        601
    x[14]     c3        797
    x[14]     c4        400
    x[14]     c5        29
    x[14]     OBJ       -319
    x[15]     c1        725
    x[15]     c2        634
    x[15]     c3        248
    x[15]     c4        440
    x[15]     c5        300
    x[15]     OBJ       -914
    x[16]     c1        179
    x[16]     c2        571
    x[16]     c3        187
    x[16]     c4        460
    x[16]     c5        850
    x[16]     OBJ       -926
    x[17]     c1        139
    x[17]     c2        7
    x[17]     c3        380
    x[17]     c4        131
    x[17]     c5        938
    x[17]     OBJ       -619
    x[18]     c1        765
    x[18]     c2        887
    x[18]     c3        375
    x[18]     c4        122
    x[18]     c5        899
    x[18]     OBJ       -996
    x[19]     c1        65
    x[19]     c2        37
    x[19]     c3        254
    x[19]     c4        106
    x[19]     c5        640
    x[19]     OBJ       -213
    x[20]     c1        333
    x[20]     c2        466
    x[20]     c3        521
    x[20]     c4        129
    x[20]     c5        302
    x[20]     OBJ       -787
    x[21]     c1        586
    x[21]     c2        737
    x[21]     c3        257
    x[21]     c4        655
    x[21]     c5        460
    x[21]     OBJ       -611
    x[22]     c1        760
    x[22]     c2        154
    x[22]     c3        21
    x[22]     c4        262
    x[22]     c5        661
    x[22]     OBJ       -395
    x[23]     c1        260
    x[23]     c2        569
    x[23]     c3        15
    x[23]     c4        450
    x[23]     c5        38
    x[23]     OBJ       -532
    x[24]     c1        613
    x[24]     c2        660
    x[24]     c3        94
    x[24]     c4        881
    x[24]     c5        635
    x[24]     OBJ       -818
    x[25]     c1        779
    x[25]     c2        135
    x[25]     c3        847
    x[25]     c4        899
    x[25]     c5        968
    x[25]     OBJ       -670
    x[26]     c1        96
    x[26]     c2        348
    x[26]     c3        863
    x[26]     c4        738
    x[26]     c5        546
    x[26]     OBJ       -123
    x[27]     c1        350
    x[27]     c2        283
    x[27]     c3        759
    x[27]     c4        729
    x[27]     c5        796
    x[27]     OBJ       -833
    x[28]     c1        779
    x[28]     c2        855
    x[28]     c3        734
    x[28]     c4        27
    x[28]     c5        449
    x[28]     OBJ       -412
    x[29]     c1        868
    x[29]     c2        186
    x[29]     c3        540
    x[29]     c4        836
    x[29]     c5        713
    x[29]     OBJ       -139
    x[30]     c1        100
    x[30]     c2        766
    x[30]     c3        264
    x[30]     c4        923
    x[30]     c5        186
    x[30]     OBJ       -122
    x[31]     c1        800
    x[31]     c2        361
    x[31]     c3        356
    x[31]     c4        657
    x[31]     c5        83
    x[31]     OBJ       -746
    x[32]     c1        390
    x[32]     c2        513
    x[32]     c3        523
    x[32]     c4        734
    x[32]     c5        891
    x[32]     OBJ       -731
    x[33]     c1        292
    x[33]     c2        635
    x[33]     c3        627
    x[33]     c4        848
    x[33]     c5        981
    x[33]     OBJ       -70
    x[34]     c1        284
    x[34]     c2        865
    x[34]     c3        507
    x[34]     c4        731
    x[34]     c5        675
    x[34]     OBJ       -99
    x[35]     c1        628
    x[35]     c2        940
    x[35]     c3        128
    x[35]     c4        324
    x[35]     c5        865
    x[35]     OBJ       -331
    x[36]     c1        201
    x[36]     c2        915
    x[36]     c3        474
    x[36]     c4        727
    x[36]     c5        60
    x[36]     OBJ       -156
    x[37]     c1        732
    x[37]     c2        781
    x[37]     c3        497
    x[37]     c4        954
    x[37]     c5        494
    x[37]     OBJ       -835
    x[38]     c1        401
    x[38]     c2        292
    x[38]     c3        747
    x[38]     c4        329
    x[38]     c5        924
    x[38]     OBJ       -550
    x[39]     c1        462
    x[39]     c2        411
    x[39]     c3        327
    x[39]     c4        65
    x[39]     c5        912
    x[39]     OBJ       -977
    x[40]     c1        626
    x[40]     c2        410
    x[40]     c3        522
    x[40]     c4        203
    x[40]     c5        666
    x[40]     OBJ       -194
RHS
    rhs       c1        8672
    rhs       c2        10372
    rhs       c3        9092
    rhs       c4        9900
    rhs       c5        10508
RANGES
BOUNDS
 BV bounds    x[1]
 BV bounds    x[2]
 BV bounds    x[3]
 BV bounds    x[4]
 BV bounds    x[5]
 BV bounds    x[6]
 BV bounds    x[7]
 BV bounds    x[8]
 BV bounds    x[9]
 BV bounds    x[10]
 BV bounds    x[11]
 BV bounds    x[12]
 BV bounds    x[13]
 BV bounds    x[14]
 BV bounds    x[15]
 BV bounds    x[16]
 BV bounds    x[17]
 BV bounds    x[18]
 BV bounds    x[19]
 BV bounds    x[20]
 BV bounds    x[21]
 BV bounds    x[22]
 BV bounds    x[23]
 BV bounds    x[24]
 BV bounds    x[25]
 BV bounds    x[26]
 BV bounds    x[27]
 BV bounds    x[28]
 BV bounds    x[29]
 BV bounds    x[30]
 BV bounds    x[31]
 BV bounds    x[32]
 BV bounds    x[33]
 BV bounds    x[34]
 BV bounds    x[35]
 BV bounds    x[36]
 BV bounds    x[37]
 BV bounds    x[38]
 BV bounds    x[39]
 BV bounds    x[40]
ENDATA
